out/production/KConstraintMultipleKnapsackProblem/zimpl/lpfiles/knapsack50nr14.lp
\ This file was automatically generated by Zimpl
\ param file := "instances/knapsack50nr14.txt";
\ param n := read file as "1n" use 1 comment "#";
\ do print n;
\ param m := read file as "1n" skip 1 use 1 comment "#";
\ do print m;
\ param k := read file as "1n" skip 2 use 1 comment "#";
\ do print k;
\ set Items := {1 to n};
\ set Knapsacks := {1 to m};
\ set Capacities := {1 to k};
\ param p[Items] := read file as "1n" skip 3 use n comment "#";
\ param w[Items*Capacities] := read file as "n+" skip 3+n use n comment "#";
\ param c[Knapsacks*Capacities] := read file as "n+" skip 3+2*n use m comment "#";
\ var x[Knapsacks * Items] binary;
\ maximize profit: sum <i> in Knapsacks: sum <j> in Items: p[j]* x[i,j];
\ subto cap: forall <i> in Knapsacks: forall <h> in Capacities: sum <j> in Items: w[j,h]*x[i,j] <= c[i,h];
\ subto one: forall <j> in Items: sum <i> in Knapsacks: x[i,j] <= 1;
\Problem name: zimplfiles/knapsack50nr14.zpl
Maximize
 profit:  +832 x#1#1 +520 x#1#2 +836 x#1#3 +873 x#1#4 +33 x#1#5 +347 x#1#6
  +440 x#1#7 +929 x#1#8 +605 x#1#9 +449 x#1#10 +201 x#1#11 +526 x#1#12
  +57 x#1#13 +989 x#1#14 +661 x#1#15 +695 x#1#16 +513 x#1#17 +554 x#1#18
  +403 x#1#19 +791 x#1#20 +758 x#1#21 +121 x#1#22 +507 x#1#23 +843 x#1#24
  +356 x#1#25 +443 x#1#26 +850 x#1#27 +473 x#1#28 +72 x#1#29 +109 x#1#30
  +444 x#1#31 +455 x#1#32 +22 x#1#33 +819 x#1#34 +18 x#1#35 +326 x#1#36
  +56 x#1#37 +178 x#1#38 +731 x#1#39 +226 x#1#40 +163 x#1#41 +671 x#1#42
  +88 x#1#43 +440 x#1#44 +779 x#1#45 +461 x#1#46 + x#1#47 +267 x#1#48
  +686 x#1#49 +327 x#1#50 +832 x#2#1 +520 x#2#2 +836 x#2#3 +873 x#2#4
  +33 x#2#5 +347 x#2#6 +440 x#2#7 +929 x#2#8 +605 x#2#9 +449 x#2#10
  +201 x#2#11 +526 x#2#12 +57 x#2#13 +989 x#2#14 +661 x#2#15 +695 x#2#16
  +513 x#2#17 +554 x#2#18 +403 x#2#19 +791 x#2#20 +758 x#2#21 +121 x#2#22
  +507 x#2#23 +843 x#2#24 +356 x#2#25 +443 x#2#26 +850 x#2#27 +473 x#2#28
  +72 x#2#29 +109 x#2#30 +444 x#2#31 +455 x#2#32 +22 x#2#33 +819 x#2#34
  +18 x#2#35 +326 x#2#36 +56 x#2#37 +178 x#2#38 +731 x#2#39 +226 x#2#40
  +163 x#2#41 +671 x#2#42 +88 x#2#43 +440 x#2#44 +779 x#2#45 +461 x#2#46
  + x#2#47 +267 x#2#48 +686 x#2#49 +327 x#2#50 +832 x#3#1 +520 x#3#2
  +836 x#3#3 +873 x#3#4 +33 x#3#5 +347 x#3#6 +440 x#3#7 +929 x#3#8
  +605 x#3#9 +449 x#3#10 +201 x#3#11 +526 x#3#12 +57 x#3#13 +989 x#3#14
  +661 x#3#15 +695 x#3#16 +513 x#3#17 +554 x#3#18 +403 x#3#19 +791 x#3#20
  +758 x#3#21 +121 x#3#22 +507 x#3#23 +843 x#3#24 +356 x#3#25 +443 x#3#26
  +850 x#3#27 +473 x#3#28 +72 x#3#29 +109 x#3#30 +444 x#3#31 +455 x#3#32
  +22 x#3#33 +819 x#3#34 +18 x#3#35 +326 x#3#36 +56 x#3#37 +178 x#3#38
  +731 x#3#39 +226 x#3#40 +163 x#3#41 +671 x#3#42 +88 x#3#43 +440 x#3#44
  +779 x#3#45 +461 x#3#46 + x#3#47 +267 x#3#48 +686 x#3#49 +327 x#3#50
  +832 x#4#1 +520 x#4#2 +836 x#4#3 +873 x#4#4 +33 x#4#5 +347 x#4#6
  +440 x#4#7 +929 x#4#8 +605 x#4#9 +449 x#4#10 +201 x#4#11 +526 x#4#12
  +57 x#4#13 +989 x#4#14 +661 x#4#15 +695 x#4#16 +513 x#4#17 +554 x#4#18
  +403 x#4#19 +791 x#4#20 +758 x#4#21 +121 x#4#22 +507 x#4#23 +843 x#4#24
  +356 x#4#25 +443 x#4#26 +850 x#4#27 +473 x#4#28 +72 x#4#29 +109 x#4#30
  +444 x#4#31 +455 x#4#32 +22 x#4#33 +819 x#4#34 +18 x#4#35 +326 x#4#36
  +56 x#4#37 +178 x#4#38 +731 x#4#39 +226 x#4#40 +163 x#4#41 +671 x#4#42
  +88 x#4#43 +440 x#4#44 +779 x#4#45 +461 x#4#46 + x#4#47 +267 x#4#48
  +686 x#4#49 +327 x#4#50 +832 x#5#1 +520 x#5#2 +836 x#5#3 +873 x#5#4
  +33 x#5#5 +347 x#5#6 +440 x#5#7 +929 x#5#8 +605 x#5#9 +449 x#5#10
  +201 x#5#11 +526 x#5#12 +57 x#5#13 +989 x#5#14 +661 x#5#15 +695 x#5#16
  +513 x#5#17 +554 x#5#18 +403 x#5#19 +791 x#5#20 +758 x#5#21 +121 x#5#22
  +507 x#5#23 +843 x#5#24 +356 x#5#25 +443 x#5#26 +850 x#5#27 +473 x#5#28
  +72 x#5#29 +109 x#5#30 +444 x#5#31 +455 x#5#32 +22 x#5#33 +819 x#5#34
  +18 x#5#35 +326 x#5#36 +56 x#5#37 +178 x#5#38 +731 x#5#39 +226 x#5#40
  +163 x#5#41 +671 x#5#42 +88 x#5#43 +440 x#5#44 +779 x#5#45 +461 x#5#46
  + x#5#47 +267 x#5#48 +686 x#5#49 +327 x#5#50 +832 x#6#1 +520 x#6#2
  +836 x#6#3 +873 x#6#4 +33 x#6#5 +347 x#6#6 +440 x#6#7 +929 x#6#8
  +605 x#6#9 +449 x#6#10 +201 x#6#11 +526 x#6#12 +57 x#6#13 +989 x#6#14
  +661 x#6#15 +695 x#6#16 +513 x#6#17 +554 x#6#18 +403 x#6#19 +791 x#6#20
  +758 x#6#21 +121 x#6#22 +507 x#6#23 +843 x#6#24 +356 x#6#25 +443 x#6#26
  +850 x#6#27 +473 x#6#28 +72 x#6#29 +109 x#6#30 +444 x#6#31 +455 x#6#32
  +22 x#6#33 +819 x#6#34 +18 x#6#35 +326 x#6#36 +56 x#6#37 +178 x#6#38
  +731 x#6#39 +226 x#6#40 +163 x#6#41 +671 x#6#42 +88 x#6#43 +440 x#6#44
  +779 x#6#45 +461 x#6#46 + x#6#47 +267 x#6#48 +686 x#6#49 +327 x#6#50
  +832 x#7#1 +520 x#7#2 +836 x#7#3 +873 x#7#4 +33 x#7#5 +347 x#7#6
  +440 x#7#7 +929 x#7#8 +605 x#7#9 +449 x#7#10 +201 x#7#11 +526 x#7#12
  +57 x#7#13 +989 x#7#14 +661 x#7#15 +695 x#7#16 +513 x#7#17 +554 x#7#18
  +403 x#7#19 +791 x#7#20 +758 x#7#21 +121 x#7#22 +507 x#7#23 +843 x#7#24
  +356 x#7#25 +443 x#7#26 +850 x#7#27 +473 x#7#28 +72 x#7#29 +109 x#7#30
  +444 x#7#31 +455 x#7#32 +22 x#7#33 +819 x#7#34 +18 x#7#35 +326 x#7#36
  +56 x#7#37 +178 x#7#38 +731 x#7#39 +226 x#7#40 +163 x#7#41 +671 x#7#42
  +88 x#7#43 +440 x#7#44 +779 x#7#45 +461 x#7#46 + x#7#47 +267 x#7#48
  +686 x#7#49 +327 x#7#50 +832 x#8#1 +520 x#8#2 +836 x#8#3 +873 x#8#4
  +33 x#8#5 +347 x#8#6 +440 x#8#7 +929 x#8#8 +605 x#8#9 +449 x#8#10
  +201 x#8#11 +526 x#8#12 +57 x#8#13 +989 x#8#14 +661 x#8#15 +695 x#8#16
  +513 x#8#17 +554 x#8#18 +403 x#8#19 +791 x#8#20 +758 x#8#21 +121 x#8#22
  +507 x#8#23 +843 x#8#24 +356 x#8#25 +443 x#8#26 +850 x#8#27 +473 x#8#28
  +72 x#8#29 +109 x#8#30 +444 x#8#31 +455 x#8#32 +22 x#8#33 +819 x#8#34
  +18 x#8#35 +326 x#8#36 +56 x#8#37 +178 x#8#38 +731 x#8#39 +226 x#8#40
  +163 x#8#41 +671 x#8#42 +88 x#8#43 +440 x#8#44 +779 x#8#45 +461 x#8#46
  + x#8#47 +267 x#8#48 +686 x#8#49 +327 x#8#50 +832 x#9#1 +520 x#9#2
  +836 x#9#3 +873 x#9#4 +33 x#9#5 +347 x#9#6 +440 x#9#7 +929 x#9#8
  +605 x#9#9 +449 x#9#10 +201 x#9#11 +526 x#9#12 +57 x#9#13 +989 x#9#14
  +661 x#9#15 +695 x#9#16 +513 x#9#17 +554 x#9#18 +403 x#9#19 +791 x#9#20
  +758 x#9#21 +121 x#9#22 +507 x#9#23 +843 x#9#24 +356 x#9#25 +443 x#9#26
  +850 x#9#27 +473 x#9#28 +72 x#9#29 +109 x#9#30 +444 x#9#31 +455 x#9#32
  +22 x#9#33 +819 x#9#34 +18 x#9#35 +326 x#9#36 +56 x#9#37 +178 x#9#38
  +731 x#9#39 +226 x#9#40 +163 x#9#41 +671 x#9#42 +88 x#9#43 +440 x#9#44
  +779 x#9#45 +461 x#9#46 + x#9#47 +267 x#9#48 +686 x#9#49 +327 x#9#50
  +832 x#10#1 +520 x#10#2 +836 x#10#3 +873 x#10#4 +33 x#10#5 +347 x#10#6
  +440 x#10#7 +929 x#10#8 +605 x#10#9 +449 x#10#10 +201 x#10#11 +526 x#10#12
  +57 x#10#13 +989 x#10#14 +661 x#10#15 +695 x#10#16 +513 x#10#17 +554 x#10#18
  +403 x#10#19 +791 x#10#20 +758 x#10#21 +121 x#10#22 +507 x#10#23 +843 x#10#24
  +356 x#10#25 +443 x#10#26 +850 x#10#27 +473 x#10#28 +72 x#10#29 +109 x#10#30
  +444 x#10#31 +455 x#10#32 +22 x#10#33 +819 x#10#34 +18 x#10#35 +326 x#10#36
  +56 x#10#37 +178 x#10#38 +731 x#10#39 +226 x#10#40 +163 x#10#41 +671 x#10#42
  +88 x#10#43 +440 x#10#44 +779 x#10#45 +461 x#10#46 + x#10#47 +267 x#10#48
  +686 x#10#49 +327 x#10#50
Subject to
 cap_1:
  +128 x#1#50 +149 x#1#49 +865 x#1#48 +408 x#1#47 +77 x#1#46 +261 x#1#45
  +996 x#1#44 +597 x#1#43 +909 x#1#42 +55 x#1#41 +536 x#1#40 +423 x#1#39
  +980 x#1#38 +759 x#1#37 +318 x#1#36 +939 x#1#35 +694 x#1#34 +15 x#1#33
  +630 x#1#32 +241 x#1#31 +115 x#1#30 +59 x#1#29 +247 x#1#28 +305 x#1#27
  +661 x#1#26 +716 x#1#25 +154 x#1#24 +680 x#1#23 +551 x#1#22 +583 x#1#21
  +83 x#1#20 +460 x#1#19 +819 x#1#18 +575 x#1#17 +251 x#1#16 +622 x#1#15
  +16 x#1#14 +638 x#1#13 +557 x#1#12 +38 x#1#11 +359 x#1#10 +971 x#1#9
  +99 x#1#8 +738 x#1#7 +105 x#1#6 +148 x#1#5 +452 x#1#4 +448 x#1#3
  +736 x#1#2 +316 x#1#1 <= 1224
 cap_2:
  +769 x#1#50 +67 x#1#49 +127 x#1#48 +709 x#1#47 +347 x#1#46 +166 x#1#45
  +975 x#1#44 +862 x#1#43 +178 x#1#42 +413 x#1#41 +577 x#1#40 +831 x#1#39
  +229 x#1#38 +374 x#1#37 +145 x#1#36 +430 x#1#35 +495 x#1#34 +964 x#1#33
  +719 x#1#32 +464 x#1#31 +920 x#1#30 +284 x#1#29 +12 x#1#28 +663 x#1#27
  +58 x#1#26 +519 x#1#25 +81 x#1#24 +247 x#1#23 +897 x#1#22 +819 x#1#21
  +105 x#1#20 +119 x#1#19 +259 x#1#18 +438 x#1#17 +573 x#1#16 +767 x#1#15
  +486 x#1#14 +256 x#1#13 +703 x#1#12 +698 x#1#11 +40 x#1#10 +268 x#1#9
  +104 x#1#8 +122 x#1#7 +33 x#1#6 +843 x#1#5 +867 x#1#4 +722 x#1#3
  +37 x#1#2 +453 x#1#1 <= 1266
 cap_3:
  +128 x#2#50 +149 x#2#49 +865 x#2#48 +408 x#2#47 +77 x#2#46 +261 x#2#45
  +996 x#2#44 +597 x#2#43 +909 x#2#42 +55 x#2#41 +536 x#2#40 +423 x#2#39
  +980 x#2#38 +759 x#2#37 +318 x#2#36 +939 x#2#35 +694 x#2#34 +15 x#2#33
  +630 x#2#32 +241 x#2#31 +115 x#2#30 +59 x#2#29 +247 x#2#28 +305 x#2#27
  +661 x#2#26 +716 x#2#25 +154 x#2#24 +680 x#2#23 +551 x#2#22 +583 x#2#21
  +83 x#2#20 +460 x#2#19 +819 x#2#18 +575 x#2#17 +251 x#2#16 +622 x#2#15
  +16 x#2#14 +638 x#2#13 +557 x#2#12 +38 x#2#11 +359 x#2#10 +971 x#2#9
  +99 x#2#8 +738 x#2#7 +105 x#2#6 +148 x#2#5 +452 x#2#4 +448 x#2#3
  +736 x#2#2 +316 x#2#1 <= 1344
 cap_4:
  +769 x#2#50 +67 x#2#49 +127 x#2#48 +709 x#2#47 +347 x#2#46 +166 x#2#45
  +975 x#2#44 +862 x#2#43 +178 x#2#42 +413 x#2#41 +577 x#2#40 +831 x#2#39
  +229 x#2#38 +374 x#2#37 +145 x#2#36 +430 x#2#35 +495 x#2#34 +964 x#2#33
  +719 x#2#32 +464 x#2#31 +920 x#2#30 +284 x#2#29 +12 x#2#28 +663 x#2#27
  +58 x#2#26 +519 x#2#25 +81 x#2#24 +247 x#2#23 +897 x#2#22 +819 x#2#21
  +105 x#2#20 +119 x#2#19 +259 x#2#18 +438 x#2#17 +573 x#2#16 +767 x#2#15
  +486 x#2#14 +256 x#2#13 +703 x#2#12 +698 x#2#11 +40 x#2#10 +268 x#2#9
  +104 x#2#8 +122 x#2#7 +33 x#2#6 +843 x#2#5 +867 x#2#4 +722 x#2#3
  +37 x#2#2 +453 x#2#1 <= 1207
 cap_5:
  +128 x#3#50 +149 x#3#49 +865 x#3#48 +408 x#3#47 +77 x#3#46 +261 x#3#45
  +996 x#3#44 +597 x#3#43 +909 x#3#42 +55 x#3#41 +536 x#3#40 +423 x#3#39
  +980 x#3#38 +759 x#3#37 +318 x#3#36 +939 x#3#35 +694 x#3#34 +15 x#3#33
  +630 x#3#32 +241 x#3#31 +115 x#3#30 +59 x#3#29 +247 x#3#28 +305 x#3#27
  +661 x#3#26 +716 x#3#25 +154 x#3#24 +680 x#3#23 +551 x#3#22 +583 x#3#21
  +83 x#3#20 +460 x#3#19 +819 x#3#18 +575 x#3#17 +251 x#3#16 +622 x#3#15
  +16 x#3#14 +638 x#3#13 +557 x#3#12 +38 x#3#11 +359 x#3#10 +971 x#3#9
  +99 x#3#8 +738 x#3#7 +105 x#3#6 +148 x#3#5 +452 x#3#4 +448 x#3#3
  +736 x#3#2 +316 x#3#1 <= 955
 cap_6:
  +769 x#3#50 +67 x#3#49 +127 x#3#48 +709 x#3#47 +347 x#3#46 +166 x#3#45
  +975 x#3#44 +862 x#3#43 +178 x#3#42 +413 x#3#41 +577 x#3#40 +831 x#3#39
  +229 x#3#38 +374 x#3#37 +145 x#3#36 +430 x#3#35 +495 x#3#34 +964 x#3#33
  +719 x#3#32 +464 x#3#31 +920 x#3#30 +284 x#3#29 +12 x#3#28 +663 x#3#27
  +58 x#3#26 +519 x#3#25 +81 x#3#24 +247 x#3#23 +897 x#3#22 +819 x#3#21
  +105 x#3#20 +119 x#3#19 +259 x#3#18 +438 x#3#17 +573 x#3#16 +767 x#3#15
  +486 x#3#14 +256 x#3#13 +703 x#3#12 +698 x#3#11 +40 x#3#10 +268 x#3#9
  +104 x#3#8 +122 x#3#7 +33 x#3#6 +843 x#3#5 +867 x#3#4 +722 x#3#3
  +37 x#3#2 +453 x#3#1 <= 1223
 cap_7:
  +128 x#4#50 +149 x#4#49 +865 x#4#48 +408 x#4#47 +77 x#4#46 +261 x#4#45
  +996 x#4#44 +597 x#4#43 +909 x#4#42 +55 x#4#41 +536 x#4#40 +423 x#4#39
  +980 x#4#38 +759 x#4#37 +318 x#4#36 +939 x#4#35 +694 x#4#34 +15 x#4#33
  +630 x#4#32 +241 x#4#31 +115 x#4#30 +59 x#4#29 +247 x#4#28 +305 x#4#27
  +661 x#4#26 +716 x#4#25 +154 x#4#24 +680 x#4#23 +551 x#4#22 +583 x#4#21
  +83 x#4#20 +460 x#4#19 +819 x#4#18 +575 x#4#17 +251 x#4#16 +622 x#4#15
  +16 x#4#14 +638 x#4#13 +557 x#4#12 +38 x#4#11 +359 x#4#10 +971 x#4#9
  +99 x#4#8 +738 x#4#7 +105 x#4#6 +148 x#4#5 +452 x#4#4 +448 x#4#3
  +736 x#4#2 +316 x#4#1 <= 920
 cap_8:
  +769 x#4#50 +67 x#4#49 +127 x#4#48 +709 x#4#47 +347 x#4#46 +166 x#4#45
  +975 x#4#44 +862 x#4#43 +178 x#4#42 +413 x#4#41 +577 x#4#40 +831 x#4#39
  +229 x#4#38 +374 x#4#37 +145 x#4#36 +430 x#4#35 +495 x#4#34 +964 x#4#33
  +719 x#4#32 +464 x#4#31 +920 x#4#30 +284 x#4#29 +12 x#4#28 +663 x#4#27
  +58 x#4#26 +519 x#4#25 +81 x#4#24 +247 x#4#23 +897 x#4#22 +819 x#4#21
  +105 x#4#20 +119 x#4#19 +259 x#4#18 +438 x#4#17 +573 x#4#16 +767 x#4#15
  +486 x#4#14 +256 x#4#13 +703 x#4#12 +698 x#4#11 +40 x#4#10 +268 x#4#9
  +104 x#4#8 +122 x#4#7 +33 x#4#6 +843 x#4#5 +867 x#4#4 +722 x#4#3
  +37 x#4#2 +453 x#4#1 <= 1205
 cap_9:
  +128 x#5#50 +149 x#5#49 +865 x#5#48 +408 x#5#47 +77 x#5#46 +261 x#5#45
  +996 x#5#44 +597 x#5#43 +909 x#5#42 +55 x#5#41 +536 x#5#40 +423 x#5#39
  +980 x#5#38 +759 x#5#37 +318 x#5#36 +939 x#5#35 +694 x#5#34 +15 x#5#33
  +630 x#5#32 +241 x#5#31 +115 x#5#30 +59 x#5#29 +247 x#5#28 +305 x#5#27
  +661 x#5#26 +716 x#5#25 +154 x#5#24 +680 x#5#23 +551 x#5#22 +583 x#5#21
  +83 x#5#20 +460 x#5#19 +819 x#5#18 +575 x#5#17 +251 x#5#16 +622 x#5#15
  +16 x#5#14 +638 x#5#13 +557 x#5#12 +38 x#5#11 +359 x#5#10 +971 x#5#9
  +99 x#5#8 +738 x#5#7 +105 x#5#6 +148 x#5#5 +452 x#5#4 +448 x#5#3
  +736 x#5#2 +316 x#5#1 <= 1159
 cap_10:
  +769 x#5#50 +67 x#5#49 +127 x#5#48 +709 x#5#47 +347 x#5#46 +166 x#5#45
  +975 x#5#44 +862 x#5#43 +178 x#5#42 +413 x#5#41 +577 x#5#40 +831 x#5#39
  +229 x#5#38 +374 x#5#37 +145 x#5#36 +430 x#5#35 +495 x#5#34 +964 x#5#33
  +719 x#5#32 +464 x#5#31 +920 x#5#30 +284 x#5#29 +12 x#5#28 +663 x#5#27
  +58 x#5#26 +519 x#5#25 +81 x#5#24 +247 x#5#23 +897 x#5#22 +819 x#5#21
  +105 x#5#20 +119 x#5#19 +259 x#5#18 +438 x#5#17 +573 x#5#16 +767 x#5#15
  +486 x#5#14 +256 x#5#13 +703 x#5#12 +698 x#5#11 +40 x#5#10 +268 x#5#9
  +104 x#5#8 +122 x#5#7 +33 x#5#6 +843 x#5#5 +867 x#5#4 +722 x#5#3
  +37 x#5#2 +453 x#5#1 <= 1110
 cap_11:
  +128 x#6#50 +149 x#6#49 +865 x#6#48 +408 x#6#47 +77 x#6#46 +261 x#6#45
  +996 x#6#44 +597 x#6#43 +909 x#6#42 +55 x#6#41 +536 x#6#40 +423 x#6#39
  +980 x#6#38 +759 x#6#37 +318 x#6#36 +939 x#6#35 +694 x#6#34 +15 x#6#33
  +630 x#6#32 +241 x#6#31 +115 x#6#30 +59 x#6#29 +247 x#6#28 +305 x#6#27
  +661 x#6#26 +716 x#6#25 +154 x#6#24 +680 x#6#23 +551 x#6#22 +583 x#6#21
  +83 x#6#20 +460 x#6#19 +819 x#6#18 +575 x#6#17 +251 x#6#16 +622 x#6#15
  +16 x#6#14 +638 x#6#13 +557 x#6#12 +38 x#6#11 +359 x#6#10 +971 x#6#9
  +99 x#6#8 +738 x#6#7 +105 x#6#6 +148 x#6#5 +452 x#6#4 +448 x#6#3
  +736 x#6#2 +316 x#6#1 <= 1259
 cap_12:
  +769 x#6#50 +67 x#6#49 +127 x#6#48 +709 x#6#47 +347 x#6#46 +166 x#6#45
  +975 x#6#44 +862 x#6#43 +178 x#6#42 +413 x#6#41 +577 x#6#40 +831 x#6#39
  +229 x#6#38 +374 x#6#37 +145 x#6#36 +430 x#6#35 +495 x#6#34 +964 x#6#33
  +719 x#6#32 +464 x#6#31 +920 x#6#30 +284 x#6#29 +12 x#6#28 +663 x#6#27
  +58 x#6#26 +519 x#6#25 +81 x#6#24 +247 x#6#23 +897 x#6#22 +819 x#6#21
  +105 x#6#20 +119 x#6#19 +259 x#6#18 +438 x#6#17 +573 x#6#16 +767 x#6#15
  +486 x#6#14 +256 x#6#13 +703 x#6#12 +698 x#6#11 +40 x#6#10 +268 x#6#9
  +104 x#6#8 +122 x#6#7 +33 x#6#6 +843 x#6#5 +867 x#6#4 +722 x#6#3
  +37 x#6#2 +453 x#6#1 <= 1219
 cap_13:
  +128 x#7#50 +149 x#7#49 +865 x#7#48 +408 x#7#47 +77 x#7#46 +261 x#7#45
  +996 x#7#44 +597 x#7#43 +909 x#7#42 +55 x#7#41 +536 x#7#40 +423 x#7#39
  +980 x#7#38 +759 x#7#37 +318 x#7#36 +939 x#7#35 +694 x#7#34 +15 x#7#33
  +630 x#7#32 +241 x#7#31 +115 x#7#30 +59 x#7#29 +247 x#7#28 +305 x#7#27
  +661 x#7#26 +716 x#7#25 +154 x#7#24 +680 x#7#23 +551 x#7#22 +583 x#7#21
  +83 x#7#20 +460 x#7#19 +819 x#7#18 +575 x#7#17 +251 x#7#16 +622 x#7#15
  +16 x#7#14 +638 x#7#13 +557 x#7#12 +38 x#7#11 +359 x#7#10 +971 x#7#9
  +99 x#7#8 +738 x#7#7 +105 x#7#6 +148 x#7#5 +452 x#7#4 +448 x#7#3
  +736 x#7#2 +316 x#7#1 <= 1244
 cap_14:
  +769 x#7#50 +67 x#7#49 +127 x#7#48 +709 x#7#47 +347 x#7#46 +166 x#7#45
  +975 x#7#44 +862 x#7#43 +178 x#7#42 +413 x#7#41 +577 x#7#40 +831 x#7#39
  +229 x#7#38 +374 x#7#37 +145 x#7#36 +430 x#7#35 +495 x#7#34 +964 x#7#33
  +719 x#7#32 +464 x#7#31 +920 x#7#30 +284 x#7#29 +12 x#7#28 +663 x#7#27
  +58 x#7#26 +519 x#7#25 +81 x#7#24 +247 x#7#23 +897 x#7#22 +819 x#7#21
  +105 x#7#20 +119 x#7#19 +259 x#7#18 +438 x#7#17 +573 x#7#16 +767 x#7#15
  +486 x#7#14 +256 x#7#13 +703 x#7#12 +698 x#7#11 +40 x#7#10 +268 x#7#9
  +104 x#7#8 +122 x#7#7 +33 x#7#6 +843 x#7#5 +867 x#7#4 +722 x#7#3
  +37 x#7#2 +453 x#7#1 <= 894
 cap_15:
  +128 x#8#50 +149 x#8#49 +865 x#8#48 +408 x#8#47 +77 x#8#46 +261 x#8#45
  +996 x#8#44 +597 x#8#43 +909 x#8#42 +55 x#8#41 +536 x#8#40 +423 x#8#39
  +980 x#8#38 +759 x#8#37 +318 x#8#36 +939 x#8#35 +694 x#8#34 +15 x#8#33
  +630 x#8#32 +241 x#8#31 +115 x#8#30 +59 x#8#29 +247 x#8#28 +305 x#8#27
  +661 x#8#26 +716 x#8#25 +154 x#8#24 +680 x#8#23 +551 x#8#22 +583 x#8#21
  +83 x#8#20 +460 x#8#19 +819 x#8#18 +575 x#8#17 +251 x#8#16 +622 x#8#15
  +16 x#8#14 +638 x#8#13 +557 x#8#12 +38 x#8#11 +359 x#8#10 +971 x#8#9
  +99 x#8#8 +738 x#8#7 +105 x#8#6 +148 x#8#5 +452 x#8#4 +448 x#8#3
  +736 x#8#2 +316 x#8#1 <= 916
 cap_16:
  +769 x#8#50 +67 x#8#49 +127 x#8#48 +709 x#8#47 +347 x#8#46 +166 x#8#45
  +975 x#8#44 +862 x#8#43 +178 x#8#42 +413 x#8#41 +577 x#8#40 +831 x#8#39
  +229 x#8#38 +374 x#8#37 +145 x#8#36 +430 x#8#35 +495 x#8#34 +964 x#8#33
  +719 x#8#32 +464 x#8#31 +920 x#8#30 +284 x#8#29 +12 x#8#28 +663 x#8#27
  +58 x#8#26 +519 x#8#25 +81 x#8#24 +247 x#8#23 +897 x#8#22 +819 x#8#21
  +105 x#8#20 +119 x#8#19 +259 x#8#18 +438 x#8#17 +573 x#8#16 +767 x#8#15
  +486 x#8#14 +256 x#8#13 +703 x#8#12 +698 x#8#11 +40 x#8#10 +268 x#8#9
  +104 x#8#8 +122 x#8#7 +33 x#8#6 +843 x#8#5 +867 x#8#4 +722 x#8#3
  +37 x#8#2 +453 x#8#1 <= 1226
 cap_17:
  +128 x#9#50 +149 x#9#49 +865 x#9#48 +408 x#9#47 +77 x#9#46 +261 x#9#45
  +996 x#9#44 +597 x#9#43 +909 x#9#42 +55 x#9#41 +536 x#9#40 +423 x#9#39
  +980 x#9#38 +759 x#9#37 +318 x#9#36 +939 x#9#35 +694 x#9#34 +15 x#9#33
  +630 x#9#32 +241 x#9#31 +115 x#9#30 +59 x#9#29 +247 x#9#28 +305 x#9#27
  +661 x#9#26 +716 x#9#25 +154 x#9#24 +680 x#9#23 +551 x#9#22 +583 x#9#21
  +83 x#9#20 +460 x#9#19 +819 x#9#18 +575 x#9#17 +251 x#9#16 +622 x#9#15
  +16 x#9#14 +638 x#9#13 +557 x#9#12 +38 x#9#11 +359 x#9#10 +971 x#9#9
  +99 x#9#8 +738 x#9#7 +105 x#9#6 +148 x#9#5 +452 x#9#4 +448 x#9#3
  +736 x#9#2 +316 x#9#1 <= 908
 cap_18:
  +769 x#9#50 +67 x#9#49 +127 x#9#48 +709 x#9#47 +347 x#9#46 +166 x#9#45
  +975 x#9#44 +862 x#9#43 +178 x#9#42 +413 x#9#41 +577 x#9#40 +831 x#9#39
  +229 x#9#38 +374 x#9#37 +145 x#9#36 +430 x#9#35 +495 x#9#34 +964 x#9#33
  +719 x#9#32 +464 x#9#31 +920 x#9#30 +284 x#9#29 +12 x#9#28 +663 x#9#27
  +58 x#9#26 +519 x#9#25 +81 x#9#24 +247 x#9#23 +897 x#9#22 +819 x#9#21
  +105 x#9#20 +119 x#9#19 +259 x#9#18 +438 x#9#17 +573 x#9#16 +767 x#9#15
  +486 x#9#14 +256 x#9#13 +703 x#9#12 +698 x#9#11 +40 x#9#10 +268 x#9#9
  +104 x#9#8 +122 x#9#7 +33 x#9#6 +843 x#9#5 +867 x#9#4 +722 x#9#3
  +37 x#9#2 +453 x#9#1 <= 1181
 cap_19:
  +128 x#10#50 +149 x#10#49 +865 x#10#48 +408 x#10#47 +77 x#10#46 +261 x#10#45
  +996 x#10#44 +597 x#10#43 +909 x#10#42 +55 x#10#41 +536 x#10#40 +423 x#10#39
  +980 x#10#38 +759 x#10#37 +318 x#10#36 +939 x#10#35 +694 x#10#34 +15 x#10#33
  +630 x#10#32 +241 x#10#31 +115 x#10#30 +59 x#10#29 +247 x#10#28 +305 x#10#27
  +661 x#10#26 +716 x#10#25 +154 x#10#24 +680 x#10#23 +551 x#10#22 +583 x#10#21
  +83 x#10#20 +460 x#10#19 +819 x#10#18 +575 x#10#17 +251 x#10#16 +622 x#10#15
  +16 x#10#14 +638 x#10#13 +557 x#10#12 +38 x#10#11 +359 x#10#10 +971 x#10#9
  +99 x#10#8 +738 x#10#7 +105 x#10#6 +148 x#10#5 +452 x#10#4 +448 x#10#3
  +736 x#10#2 +316 x#10#1 <= 6277
 cap_20:
  +769 x#10#50 +67 x#10#49 +127 x#10#48 +709 x#10#47 +347 x#10#46 +166 x#10#45
  +975 x#10#44 +862 x#10#43 +178 x#10#42 +413 x#10#41 +577 x#10#40 +831 x#10#39
  +229 x#10#38 +374 x#10#37 +145 x#10#36 +430 x#10#35 +495 x#10#34 +964 x#10#33
  +719 x#10#32 +464 x#10#31 +920 x#10#30 +284 x#10#29 +12 x#10#28 +663 x#10#27
  +58 x#10#26 +519 x#10#25 +81 x#10#24 +247 x#10#23 +897 x#10#22 +819 x#10#21
  +105 x#10#20 +119 x#10#19 +259 x#10#18 +438 x#10#17 +573 x#10#16 +767 x#10#15
  +486 x#10#14 +256 x#10#13 +703 x#10#12 +698 x#10#11 +40 x#10#10 +268 x#10#9
  +104 x#10#8 +122 x#10#7 +33 x#10#6 +843 x#10#5 +867 x#10#4 +722 x#10#3
  +37 x#10#2 +453 x#10#1 <= 5852
 one_1:
  + x#10#1 + x#9#1 + x#8#1 + x#7#1 + x#6#1 + x#5#1
  + x#4#1 + x#3#1 + x#2#1 + x#1#1 <= 1
 one_2:
  + x#10#2 + x#9#2 + x#8#2 + x#7#2 + x#6#2 + x#5#2
  + x#4#2 + x#3#2 + x#2#2 + x#1#2 <= 1
 one_3:
  + x#10#3 + x#9#3 + x#8#3 + x#7#3 + x#6#3 + x#5#3
  + x#4#3 + x#3#3 + x#2#3 + x#1#3 <= 1
 one_4:
  + x#10#4 + x#9#4 + x#8#4 + x#7#4 + x#6#4 + x#5#4
  + x#4#4 + x#3#4 + x#2#4 + x#1#4 <= 1
 one_5:
  + x#10#5 + x#9#5 + x#8#5 + x#7#5 + x#6#5 + x#5#5
  + x#4#5 + x#3#5 + x#2#5 + x#1#5 <= 1
 one_6:
  + x#10#6 + x#9#6 + x#8#6 + x#7#6 + x#6#6 + x#5#6
  + x#4#6 + x#3#6 + x#2#6 + x#1#6 <= 1
 one_7:
  + x#10#7 + x#9#7 + x#8#7 + x#7#7 + x#6#7 + x#5#7
  + x#4#7 + x#3#7 + x#2#7 + x#1#7 <= 1
 one_8:
  + x#10#8 + x#9#8 + x#8#8 + x#7#8 + x#6#8 + x#5#8
  + x#4#8 + x#3#8 + x#2#8 + x#1#8 <= 1
 one_9:
  + x#10#9 + x#9#9 + x#8#9 + x#7#9 + x#6#9 + x#5#9
  + x#4#9 + x#3#9 + x#2#9 + x#1#9 <= 1
 one_10:
  + x#10#10 + x#9#10 + x#8#10 + x#7#10 + x#6#10 + x#5#10
  + x#4#10 + x#3#10 + x#2#10 + x#1#10 <= 1
 one_11:
  + x#10#11 + x#9#11 + x#8#11 + x#7#11 + x#6#11 + x#5#11
  + x#4#11 + x#3#11 + x#2#11 + x#1#11 <= 1
 one_12:
  + x#10#12 + x#9#12 + x#8#12 + x#7#12 + x#6#12 + x#5#12
  + x#4#12 + x#3#12 + x#2#12 + x#1#12 <= 1
 one_13:
  + x#10#13 + x#9#13 + x#8#13 + x#7#13 + x#6#13 + x#5#13
  + x#4#13 + x#3#13 + x#2#13 + x#1#13 <= 1
 one_14:
  + x#10#14 + x#9#14 + x#8#14 + x#7#14 + x#6#14 + x#5#14
  + x#4#14 + x#3#14 + x#2#14 + x#1#14 <= 1
 one_15:
  + x#10#15 + x#9#15 + x#8#15 + x#7#15 + x#6#15 + x#5#15
  + x#4#15 + x#3#15 + x#2#15 + x#1#15 <= 1
 one_16:
  + x#10#16 + x#9#16 + x#8#16 + x#7#16 + x#6#16 + x#5#16
  + x#4#16 + x#3#16 + x#2#16 + x#1#16 <= 1
 one_17:
  + x#10#17 + x#9#17 + x#8#17 + x#7#17 + x#6#17 + x#5#17
  + x#4#17 + x#3#17 + x#2#17 + x#1#17 <= 1
 one_18:
  + x#10#18 + x#9#18 + x#8#18 + x#7#18 + x#6#18 + x#5#18
  + x#4#18 + x#3#18 + x#2#18 + x#1#18 <= 1
 one_19:
  + x#10#19 + x#9#19 + x#8#19 + x#7#19 + x#6#19 + x#5#19
  + x#4#19 + x#3#19 + x#2#19 + x#1#19 <= 1
 one_20:
  + x#10#20 + x#9#20 + x#8#20 + x#7#20 + x#6#20 + x#5#20
  + x#4#20 + x#3#20 + x#2#20 + x#1#20 <= 1
 one_21:
  + x#10#21 + x#9#21 + x#8#21 + x#7#21 + x#6#21 + x#5#21
  + x#4#21 + x#3#21 + x#2#21 + x#1#21 <= 1
 one_22:
  + x#10#22 + x#9#22 + x#8#22 + x#7#22 + x#6#22 + x#5#22
  + x#4#22 + x#3#22 + x#2#22 + x#1#22 <= 1
 one_23:
  + x#10#23 + x#9#23 + x#8#23 + x#7#23 + x#6#23 + x#5#23
  + x#4#23 + x#3#23 + x#2#23 + x#1#23 <= 1
 one_24:
  + x#10#24 + x#9#24 + x#8#24 + x#7#24 + x#6#24 + x#5#24
  + x#4#24 + x#3#24 + x#2#24 + x#1#24 <= 1
 one_25:
  + x#10#25 + x#9#25 + x#8#25 + x#7#25 + x#6#25 + x#5#25
  + x#4#25 + x#3#25 + x#2#25 + x#1#25 <= 1
 one_26:
  + x#10#26 + x#9#26 + x#8#26 + x#7#26 + x#6#26 + x#5#26
  + x#4#26 + x#3#26 + x#2#26 + x#1#26 <= 1
 one_27:
  + x#10#27 + x#9#27 + x#8#27 + x#7#27 + x#6#27 + x#5#27
  + x#4#27 + x#3#27 + x#2#27 + x#1#27 <= 1
 one_28:
  + x#10#28 + x#9#28 + x#8#28 + x#7#28 + x#6#28 + x#5#28
  + x#4#28 + x#3#28 + x#2#28 + x#1#28 <= 1
 one_29:
  + x#10#29 + x#9#29 + x#8#29 + x#7#29 + x#6#29 + x#5#29
  + x#4#29 + x#3#29 + x#2#29 + x#1#29 <= 1
 one_30:
  + x#10#30 + x#9#30 + x#8#30 + x#7#30 + x#6#30 + x#5#30
  + x#4#30 + x#3#30 + x#2#30 + x#1#30 <= 1
 one_31:
  + x#10#31 + x#9#31 + x#8#31 + x#7#31 + x#6#31 + x#5#31
  + x#4#31 + x#3#31 + x#2#31 + x#1#31 <= 1
 one_32:
  + x#10#32 + x#9#32 + x#8#32 + x#7#32 + x#6#32 + x#5#32
  + x#4#32 + x#3#32 + x#2#32 + x#1#32 <= 1
 one_33:
  + x#10#33 + x#9#33 + x#8#33 + x#7#33 + x#6#33 + x#5#33
  + x#4#33 + x#3#33 + x#2#33 + x#1#33 <= 1
 one_34:
  + x#10#34 + x#9#34 + x#8#34 + x#7#34 + x#6#34 + x#5#34
  + x#4#34 + x#3#34 + x#2#34 + x#1#34 <= 1
 one_35:
  + x#10#35 + x#9#35 + x#8#35 + x#7#35 + x#6#35 + x#5#35
  + x#4#35 + x#3#35 + x#2#35 + x#1#35 <= 1
 one_36:
  + x#10#36 + x#9#36 + x#8#36 + x#7#36 + x#6#36 + x#5#36
  + x#4#36 + x#3#36 + x#2#36 + x#1#36 <= 1
 one_37:
  + x#10#37 + x#9#37 + x#8#37 + x#7#37 + x#6#37 + x#5#37
  + x#4#37 + x#3#37 + x#2#37 + x#1#37 <= 1
 one_38:
  + x#10#38 + x#9#38 + x#8#38 + x#7#38 + x#6#38 + x#5#38
  + x#4#38 + x#3#38 + x#2#38 + x#1#38 <= 1
 one_39:
  + x#10#39 + x#9#39 + x#8#39 + x#7#39 + x#6#39 + x#5#39
  + x#4#39 + x#3#39 + x#2#39 + x#1#39 <= 1
 one_40:
  + x#10#40 + x#9#40 + x#8#40 + x#7#40 + x#6#40 + x#5#40
  + x#4#40 + x#3#40 + x#2#40 + x#1#40 <= 1
 one_41:
  + x#10#41 + x#9#41 + x#8#41 + x#7#41 + x#6#41 + x#5#41
  + x#4#41 + x#3#41 + x#2#41 + x#1#41 <= 1
 one_42:
  + x#10#42 + x#9#42 + x#8#42 + x#7#42 + x#6#42 + x#5#42
  + x#4#42 + x#3#42 + x#2#42 + x#1#42 <= 1
 one_43:
  + x#10#43 + x#9#43 + x#8#43 + x#7#43 + x#6#43 + x#5#43
  + x#4#43 + x#3#43 + x#2#43 + x#1#43 <= 1
 one_44:
  + x#10#44 + x#9#44 + x#8#44 + x#7#44 + x#6#44 + x#5#44
  + x#4#44 + x#3#44 + x#2#44 + x#1#44 <= 1
 one_45:
  + x#10#45 + x#9#45 + x#8#45 + x#7#45 + x#6#45 + x#5#45
  + x#4#45 + x#3#45 + x#2#45 + x#1#45 <= 1
 one_46:
  + x#10#46 + x#9#46 + x#8#46 + x#7#46 + x#6#46 + x#5#46
  + x#4#46 + x#3#46 + x#2#46 + x#1#46 <= 1
 one_47:
  + x#10#47 + x#9#47 + x#8#47 + x#7#47 + x#6#47 + x#5#47
  + x#4#47 + x#3#47 + x#2#47 + x#1#47 <= 1
 one_48:
  + x#10#48 + x#9#48 + x#8#48 + x#7#48 + x#6#48 + x#5#48
  + x#4#48 + x#3#48 + x#2#48 + x#1#48 <= 1
 one_49:
  + x#10#49 + x#9#49 + x#8#49 + x#7#49 + x#6#49 + x#5#49
  + x#4#49 + x#3#49 + x#2#49 + x#1#49 <= 1
 one_50:
  + x#10#50 + x#9#50 + x#8#50 + x#7#50 + x#6#50 + x#5#50
  + x#4#50 + x#3#50 + x#2#50 + x#1#50 <= 1
Bounds
 0 <= x#1#1 <= 1
 0 <= x#1#2 <= 1
 0 <= x#1#3 <= 1
 0 <= x#1#4 <= 1
 0 <= x#1#5 <= 1
 0 <= x#1#6 <= 1
 0 <= x#1#7 <= 1
 0 <= x#1#8 <= 1
 0 <= x#1#9 <= 1
 0 <= x#1#10 <= 1
 0 <= x#1#11 <= 1
 0 <= x#1#12 <= 1
 0 <= x#1#13 <= 1
 0 <= x#1#14 <= 1
 0 <= x#1#15 <= 1
 0 <= x#1#16 <= 1
 0 <= x#1#17 <= 1
 0 <= x#1#18 <= 1
 0 <= x#1#19 <= 1
 0 <= x#1#20 <= 1
 0 <= x#1#21 <= 1
 0 <= x#1#22 <= 1
 0 <= x#1#23 <= 1
 0 <= x#1#24 <= 1
 0 <= x#1#25 <= 1
 0 <= x#1#26 <= 1
 0 <= x#1#27 <= 1
 0 <= x#1#28 <= 1
 0 <= x#1#29 <= 1
 0 <= x#1#30 <= 1
 0 <= x#1#31 <= 1
 0 <= x#1#32 <= 1
 0 <= x#1#33 <= 1
 0 <= x#1#34 <= 1
 0 <= x#1#35 <= 1
 0 <= x#1#36 <= 1
 0 <= x#1#37 <= 1
 0 <= x#1#38 <= 1
 0 <= x#1#39 <= 1
 0 <= x#1#40 <= 1
 0 <= x#1#41 <= 1
 0 <= x#1#42 <= 1
 0 <= x#1#43 <= 1
 0 <= x#1#44 <= 1
 0 <= x#1#45 <= 1
 0 <= x#1#46 <= 1
 0 <= x#1#47 <= 1
 0 <= x#1#48 <= 1
 0 <= x#1#49 <= 1
 0 <= x#1#50 <= 1
 0 <= x#2#1 <= 1
 0 <= x#2#2 <= 1
 0 <= x#2#3 <= 1
 0 <= x#2#4 <= 1
 0 <= x#2#5 <= 1
 0 <= x#2#6 <= 1
 0 <= x#2#7 <= 1
 0 <= x#2#8 <= 1
 0 <= x#2#9 <= 1
 0 <= x#2#10 <= 1
 0 <= x#2#11 <= 1
 0 <= x#2#12 <= 1
 0 <= x#2#13 <= 1
 0 <= x#2#14 <= 1
 0 <= x#2#15 <= 1
 0 <= x#2#16 <= 1
 0 <= x#2#17 <= 1
 0 <= x#2#18 <= 1
 0 <= x#2#19 <= 1
 0 <= x#2#20 <= 1
 0 <= x#2#21 <= 1
 0 <= x#2#22 <= 1
 0 <= x#2#23 <= 1
 0 <= x#2#24 <= 1
 0 <= x#2#25 <= 1
 0 <= x#2#26 <= 1
 0 <= x#2#27 <= 1
 0 <= x#2#28 <= 1
 0 <= x#2#29 <= 1
 0 <= x#2#30 <= 1
 0 <= x#2#31 <= 1
 0 <= x#2#32 <= 1
 0 <= x#2#33 <= 1
 0 <= x#2#34 <= 1
 0 <= x#2#35 <= 1
 0 <= x#2#36 <= 1
 0 <= x#2#37 <= 1
 0 <= x#2#38 <= 1
 0 <= x#2#39 <= 1
 0 <= x#2#40 <= 1
 0 <= x#2#41 <= 1
 0 <= x#2#42 <= 1
 0 <= x#2#43 <= 1
 0 <= x#2#44 <= 1
 0 <= x#2#45 <= 1
 0 <= x#2#46 <= 1
 0 <= x#2#47 <= 1
 0 <= x#2#48 <= 1
 0 <= x#2#49 <= 1
 0 <= x#2#50 <= 1
 0 <= x#3#1 <= 1
 0 <= x#3#2 <= 1
 0 <= x#3#3 <= 1
 0 <= x#3#4 <= 1
 0 <= x#3#5 <= 1
 0 <= x#3#6 <= 1
 0 <= x#3#7 <= 1
 0 <= x#3#8 <= 1
 0 <= x#3#9 <= 1
 0 <= x#3#10 <= 1
 0 <= x#3#11 <= 1
 0 <= x#3#12 <= 1
 0 <= x#3#13 <= 1
 0 <= x#3#14 <= 1
 0 <= x#3#15 <= 1
 0 <= x#3#16 <= 1
 0 <= x#3#17 <= 1
 0 <= x#3#18 <= 1
 0 <= x#3#19 <= 1
 0 <= x#3#20 <= 1
 0 <= x#3#21 <= 1
 0 <= x#3#22 <= 1
 0 <= x#3#23 <= 1
 0 <= x#3#24 <= 1
 0 <= x#3#25 <= 1
 0 <= x#3#26 <= 1
 0 <= x#3#27 <= 1
 0 <= x#3#28 <= 1
 0 <= x#3#29 <= 1
 0 <= x#3#30 <= 1
 0 <= x#3#31 <= 1
 0 <= x#3#32 <= 1
 0 <= x#3#33 <= 1
 0 <= x#3#34 <= 1
 0 <= x#3#35 <= 1
 0 <= x#3#36 <= 1
 0 <= x#3#37 <= 1
 0 <= x#3#38 <= 1
 0 <= x#3#39 <= 1
 0 <= x#3#40 <= 1
 0 <= x#3#41 <= 1
 0 <= x#3#42 <= 1
 0 <= x#3#43 <= 1
 0 <= x#3#44 <= 1
 0 <= x#3#45 <= 1
 0 <= x#3#46 <= 1
 0 <= x#3#47 <= 1
 0 <= x#3#48 <= 1
 0 <= x#3#49 <= 1
 0 <= x#3#50 <= 1
 0 <= x#4#1 <= 1
 0 <= x#4#2 <= 1
 0 <= x#4#3 <= 1
 0 <= x#4#4 <= 1
 0 <= x#4#5 <= 1
 0 <= x#4#6 <= 1
 0 <= x#4#7 <= 1
 0 <= x#4#8 <= 1
 0 <= x#4#9 <= 1
 0 <= x#4#10 <= 1
 0 <= x#4#11 <= 1
 0 <= x#4#12 <= 1
 0 <= x#4#13 <= 1
 0 <= x#4#14 <= 1
 0 <= x#4#15 <= 1
 0 <= x#4#16 <= 1
 0 <= x#4#17 <= 1
 0 <= x#4#18 <= 1
 0 <= x#4#19 <= 1
 0 <= x#4#20 <= 1
 0 <= x#4#21 <= 1
 0 <= x#4#22 <= 1
 0 <= x#4#23 <= 1
 0 <= x#4#24 <= 1
 0 <= x#4#25 <= 1
 0 <= x#4#26 <= 1
 0 <= x#4#27 <= 1
 0 <= x#4#28 <= 1
 0 <= x#4#29 <= 1
 0 <= x#4#30 <= 1
 0 <= x#4#31 <= 1
 0 <= x#4#32 <= 1
 0 <= x#4#33 <= 1
 0 <= x#4#34 <= 1
 0 <= x#4#35 <= 1
 0 <= x#4#36 <= 1
 0 <= x#4#37 <= 1
 0 <= x#4#38 <= 1
 0 <= x#4#39 <= 1
 0 <= x#4#40 <= 1
 0 <= x#4#41 <= 1
 0 <= x#4#42 <= 1
 0 <= x#4#43 <= 1
 0 <= x#4#44 <= 1
 0 <= x#4#45 <= 1
 0 <= x#4#46 <= 1
 0 <= x#4#47 <= 1
 0 <= x#4#48 <= 1
 0 <= x#4#49 <= 1
 0 <= x#4#50 <= 1
 0 <= x#5#1 <= 1
 0 <= x#5#2 <= 1
 0 <= x#5#3 <= 1
 0 <= x#5#4 <= 1
 0 <= x#5#5 <= 1
 0 <= x#5#6 <= 1
 0 <= x#5#7 <= 1
 0 <= x#5#8 <= 1
 0 <= x#5#9 <= 1
 0 <= x#5#10 <= 1
 0 <= x#5#11 <= 1
 0 <= x#5#12 <= 1
 0 <= x#5#13 <= 1
 0 <= x#5#14 <= 1
 0 <= x#5#15 <= 1
 0 <= x#5#16 <= 1
 0 <= x#5#17 <= 1
 0 <= x#5#18 <= 1
 0 <= x#5#19 <= 1
 0 <= x#5#20 <= 1
 0 <= x#5#21 <= 1
 0 <= x#5#22 <= 1
 0 <= x#5#23 <= 1
 0 <= x#5#24 <= 1
 0 <= x#5#25 <= 1
 0 <= x#5#26 <= 1
 0 <= x#5#27 <= 1
 0 <= x#5#28 <= 1
 0 <= x#5#29 <= 1
 0 <= x#5#30 <= 1
 0 <= x#5#31 <= 1
 0 <= x#5#32 <= 1
 0 <= x#5#33 <= 1
 0 <= x#5#34 <= 1
 0 <= x#5#35 <= 1
 0 <= x#5#36 <= 1
 0 <= x#5#37 <= 1
 0 <= x#5#38 <= 1
 0 <= x#5#39 <= 1
 0 <= x#5#40 <= 1
 0 <= x#5#41 <= 1
 0 <= x#5#42 <= 1
 0 <= x#5#43 <= 1
 0 <= x#5#44 <= 1
 0 <= x#5#45 <= 1
 0 <= x#5#46 <= 1
 0 <= x#5#47 <= 1
 0 <= x#5#48 <= 1
 0 <= x#5#49 <= 1
 0 <= x#5#50 <= 1
 0 <= x#6#1 <= 1
 0 <= x#6#2 <= 1
 0 <= x#6#3 <= 1
 0 <= x#6#4 <= 1
 0 <= x#6#5 <= 1
 0 <= x#6#6 <= 1
 0 <= x#6#7 <= 1
 0 <= x#6#8 <= 1
 0 <= x#6#9 <= 1
 0 <= x#6#10 <= 1
 0 <= x#6#11 <= 1
 0 <= x#6#12 <= 1
 0 <= x#6#13 <= 1
 0 <= x#6#14 <= 1
 0 <= x#6#15 <= 1
 0 <= x#6#16 <= 1
 0 <= x#6#17 <= 1
 0 <= x#6#18 <= 1
 0 <= x#6#19 <= 1
 0 <= x#6#20 <= 1
 0 <= x#6#21 <= 1
 0 <= x#6#22 <= 1
 0 <= x#6#23 <= 1
 0 <= x#6#24 <= 1
 0 <= x#6#25 <= 1
 0 <= x#6#26 <= 1
 0 <= x#6#27 <= 1
 0 <= x#6#28 <= 1
 0 <= x#6#29 <= 1
 0 <= x#6#30 <= 1
 0 <= x#6#31 <= 1
 0 <= x#6#32 <= 1
 0 <= x#6#33 <= 1
 0 <= x#6#34 <= 1
 0 <= x#6#35 <= 1
 0 <= x#6#36 <= 1
 0 <= x#6#37 <= 1
 0 <= x#6#38 <= 1
 0 <= x#6#39 <= 1
 0 <= x#6#40 <= 1
 0 <= x#6#41 <= 1
 0 <= x#6#42 <= 1
 0 <= x#6#43 <= 1
 0 <= x#6#44 <= 1
 0 <= x#6#45 <= 1
 0 <= x#6#46 <= 1
 0 <= x#6#47 <= 1
 0 <= x#6#48 <= 1
 0 <= x#6#49 <= 1
 0 <= x#6#50 <= 1
 0 <= x#7#1 <= 1
 0 <= x#7#2 <= 1
 0 <= x#7#3 <= 1
 0 <= x#7#4 <= 1
 0 <= x#7#5 <= 1
 0 <= x#7#6 <= 1
 0 <= x#7#7 <= 1
 0 <= x#7#8 <= 1
 0 <= x#7#9 <= 1
 0 <= x#7#10 <= 1
 0 <= x#7#11 <= 1
 0 <= x#7#12 <= 1
 0 <= x#7#13 <= 1
 0 <= x#7#14 <= 1
 0 <= x#7#15 <= 1
 0 <= x#7#16 <= 1
 0 <= x#7#17 <= 1
 0 <= x#7#18 <= 1
 0 <= x#7#19 <= 1
 0 <= x#7#20 <= 1
 0 <= x#7#21 <= 1
 0 <= x#7#22 <= 1
 0 <= x#7#23 <= 1
 0 <= x#7#24 <= 1
 0 <= x#7#25 <= 1
 0 <= x#7#26 <= 1
 0 <= x#7#27 <= 1
 0 <= x#7#28 <= 1
 0 <= x#7#29 <= 1
 0 <= x#7#30 <= 1
 0 <= x#7#31 <= 1
 0 <= x#7#32 <= 1
 0 <= x#7#33 <= 1
 0 <= x#7#34 <= 1
 0 <= x#7#35 <= 1
 0 <= x#7#36 <= 1
 0 <= x#7#37 <= 1
 0 <= x#7#38 <= 1
 0 <= x#7#39 <= 1
 0 <= x#7#40 <= 1
 0 <= x#7#41 <= 1
 0 <= x#7#42 <= 1
 0 <= x#7#43 <= 1
 0 <= x#7#44 <= 1
 0 <= x#7#45 <= 1
 0 <= x#7#46 <= 1
 0 <= x#7#47 <= 1
 0 <= x#7#48 <= 1
 0 <= x#7#49 <= 1
 0 <= x#7#50 <= 1
 0 <= x#8#1 <= 1
 0 <= x#8#2 <= 1
 0 <= x#8#3 <= 1
 0 <= x#8#4 <= 1
 0 <= x#8#5 <= 1
 0 <= x#8#6 <= 1
 0 <= x#8#7 <= 1
 0 <= x#8#8 <= 1
 0 <= x#8#9 <= 1
 0 <= x#8#10 <= 1
 0 <= x#8#11 <= 1
 0 <= x#8#12 <= 1
 0 <= x#8#13 <= 1
 0 <= x#8#14 <= 1
 0 <= x#8#15 <= 1
 0 <= x#8#16 <= 1
 0 <= x#8#17 <= 1
 0 <= x#8#18 <= 1
 0 <= x#8#19 <= 1
 0 <= x#8#20 <= 1
 0 <= x#8#21 <= 1
 0 <= x#8#22 <= 1
 0 <= x#8#23 <= 1
 0 <= x#8#24 <= 1
 0 <= x#8#25 <= 1
 0 <= x#8#26 <= 1
 0 <= x#8#27 <= 1
 0 <= x#8#28 <= 1
 0 <= x#8#29 <= 1
 0 <= x#8#30 <= 1
 0 <= x#8#31 <= 1
 0 <= x#8#32 <= 1
 0 <= x#8#33 <= 1
 0 <= x#8#34 <= 1
 0 <= x#8#35 <= 1
 0 <= x#8#36 <= 1
 0 <= x#8#37 <= 1
 0 <= x#8#38 <= 1
 0 <= x#8#39 <= 1
 0 <= x#8#40 <= 1
 0 <= x#8#41 <= 1
 0 <= x#8#42 <= 1
 0 <= x#8#43 <= 1
 0 <= x#8#44 <= 1
 0 <= x#8#45 <= 1
 0 <= x#8#46 <= 1
 0 <= x#8#47 <= 1
 0 <= x#8#48 <= 1
 0 <= x#8#49 <= 1
 0 <= x#8#50 <= 1
 0 <= x#9#1 <= 1
 0 <= x#9#2 <= 1
 0 <= x#9#3 <= 1
 0 <= x#9#4 <= 1
 0 <= x#9#5 <= 1
 0 <= x#9#6 <= 1
 0 <= x#9#7 <= 1
 0 <= x#9#8 <= 1
 0 <= x#9#9 <= 1
 0 <= x#9#10 <= 1
 0 <= x#9#11 <= 1
 0 <= x#9#12 <= 1
 0 <= x#9#13 <= 1
 0 <= x#9#14 <= 1
 0 <= x#9#15 <= 1
 0 <= x#9#16 <= 1
 0 <= x#9#17 <= 1
 0 <= x#9#18 <= 1
 0 <= x#9#19 <= 1
 0 <= x#9#20 <= 1
 0 <= x#9#21 <= 1
 0 <= x#9#22 <= 1
 0 <= x#9#23 <= 1
 0 <= x#9#24 <= 1
 0 <= x#9#25 <= 1
 0 <= x#9#26 <= 1
 0 <= x#9#27 <= 1
 0 <= x#9#28 <= 1
 0 <= x#9#29 <= 1
 0 <= x#9#30 <= 1
 0 <= x#9#31 <= 1
 0 <= x#9#32 <= 1
 0 <= x#9#33 <= 1
 0 <= x#9#34 <= 1
 0 <= x#9#35 <= 1
 0 <= x#9#36 <= 1
 0 <= x#9#37 <= 1
 0 <= x#9#38 <= 1
 0 <= x#9#39 <= 1
 0 <= x#9#40 <= 1
 0 <= x#9#41 <= 1
 0 <= x#9#42 <= 1
 0 <= x#9#43 <= 1
 0 <= x#9#44 <= 1
 0 <= x#9#45 <= 1
 0 <= x#9#46 <= 1
 0 <= x#9#47 <= 1
 0 <= x#9#48 <= 1
 0 <= x#9#49 <= 1
 0 <= x#9#50 <= 1
 0 <= x#10#1 <= 1
 0 <= x#10#2 <= 1
 0 <= x#10#3 <= 1
 0 <= x#10#4 <= 1
 0 <= x#10#5 <= 1
 0 <= x#10#6 <= 1
 0 <= x#10#7 <= 1
 0 <= x#10#8 <= 1
 0 <= x#10#9 <= 1
 0 <= x#10#10 <= 1
 0 <= x#10#11 <= 1
 0 <= x#10#12 <= 1
 0 <= x#10#13 <= 1
 0 <= x#10#14 <= 1
 0 <= x#10#15 <= 1
 0 <= x#10#16 <= 1
 0 <= x#10#17 <= 1
 0 <= x#10#18 <= 1
 0 <= x#10#19 <= 1
 0 <= x#10#20 <= 1
 0 <= x#10#21 <= 1
 0 <= x#10#22 <= 1
 0 <= x#10#23 <= 1
 0 <= x#10#24 <= 1
 0 <= x#10#25 <= 1
 0 <= x#10#26 <= 1
 0 <= x#10#27 <= 1
 0 <= x#10#28 <= 1
 0 <= x#10#29 <= 1
 0 <= x#10#30 <= 1
 0 <= x#10#31 <= 1
 0 <= x#10#32 <= 1
 0 <= x#10#33 <= 1
 0 <= x#10#34 <= 1
 0 <= x#10#35 <= 1
 0 <= x#10#36 <= 1
 0 <= x#10#37 <= 1
 0 <= x#10#38 <= 1
 0 <= x#10#39 <= 1
 0 <= x#10#40 <= 1
 0 <= x#10#41 <= 1
 0 <= x#10#42 <= 1
 0 <= x#10#43 <= 1
 0 <= x#10#44 <= 1
 0 <= x#10#45 <= 1
 0 <= x#10#46 <= 1
 0 <= x#10#47 <= 1
 0 <= x#10#48 <= 1
 0 <= x#10#49 <= 1
 0 <= x#10#50 <= 1
General
 x#1#1
 x#1#2
 x#1#3
 x#1#4
 x#1#5
 x#1#6
 x#1#7
 x#1#8
 x#1#9
 x#1#10
 x#1#11
 x#1#12
 x#1#13
 x#1#14
 x#1#15
 x#1#16
 x#1#17
 x#1#18
 x#1#19
 x#1#20
 x#1#21
 x#1#22
 x#1#23
 x#1#24
 x#1#25
 x#1#26
 x#1#27
 x#1#28
 x#1#29
 x#1#30
 x#1#31
 x#1#32
 x#1#33
 x#1#34
 x#1#35
 x#1#36
 x#1#37
 x#1#38
 x#1#39
 x#1#40
 x#1#41
 x#1#42
 x#1#43
 x#1#44
 x#1#45
 x#1#46
 x#1#47
 x#1#48
 x#1#49
 x#1#50
 x#2#1
 x#2#2
 x#2#3
 x#2#4
 x#2#5
 x#2#6
 x#2#7
 x#2#8
 x#2#9
 x#2#10
 x#2#11
 x#2#12
 x#2#13
 x#2#14
 x#2#15
 x#2#16
 x#2#17
 x#2#18
 x#2#19
 x#2#20
 x#2#21
 x#2#22
 x#2#23
 x#2#24
 x#2#25
 x#2#26
 x#2#27
 x#2#28
 x#2#29
 x#2#30
 x#2#31
 x#2#32
 x#2#33
 x#2#34
 x#2#35
 x#2#36
 x#2#37
 x#2#38
 x#2#39
 x#2#40
 x#2#41
 x#2#42
 x#2#43
 x#2#44
 x#2#45
 x#2#46
 x#2#47
 x#2#48
 x#2#49
 x#2#50
 x#3#1
 x#3#2
 x#3#3
 x#3#4
 x#3#5
 x#3#6
 x#3#7
 x#3#8
 x#3#9
 x#3#10
 x#3#11
 x#3#12
 x#3#13
 x#3#14
 x#3#15
 x#3#16
 x#3#17
 x#3#18
 x#3#19
 x#3#20
 x#3#21
 x#3#22
 x#3#23
 x#3#24
 x#3#25
 x#3#26
 x#3#27
 x#3#28
 x#3#29
 x#3#30
 x#3#31
 x#3#32
 x#3#33
 x#3#34
 x#3#35
 x#3#36
 x#3#37
 x#3#38
 x#3#39
 x#3#40
 x#3#41
 x#3#42
 x#3#43
 x#3#44
 x#3#45
 x#3#46
 x#3#47
 x#3#48
 x#3#49
 x#3#50
 x#4#1
 x#4#2
 x#4#3
 x#4#4
 x#4#5
 x#4#6
 x#4#7
 x#4#8
 x#4#9
 x#4#10
 x#4#11
 x#4#12
 x#4#13
 x#4#14
 x#4#15
 x#4#16
 x#4#17
 x#4#18
 x#4#19
 x#4#20
 x#4#21
 x#4#22
 x#4#23
 x#4#24
 x#4#25
 x#4#26
 x#4#27
 x#4#28
 x#4#29
 x#4#30
 x#4#31
 x#4#32
 x#4#33
 x#4#34
 x#4#35
 x#4#36
 x#4#37
 x#4#38
 x#4#39
 x#4#40
 x#4#41
 x#4#42
 x#4#43
 x#4#44
 x#4#45
 x#4#46
 x#4#47
 x#4#48
 x#4#49
 x#4#50
 x#5#1
 x#5#2
 x#5#3
 x#5#4
 x#5#5
 x#5#6
 x#5#7
 x#5#8
 x#5#9
 x#5#10
 x#5#11
 x#5#12
 x#5#13
 x#5#14
 x#5#15
 x#5#16
 x#5#17
 x#5#18
 x#5#19
 x#5#20
 x#5#21
 x#5#22
 x#5#23
 x#5#24
 x#5#25
 x#5#26
 x#5#27
 x#5#28
 x#5#29
 x#5#30
 x#5#31
 x#5#32
 x#5#33
 x#5#34
 x#5#35
 x#5#36
 x#5#37
 x#5#38
 x#5#39
 x#5#40
 x#5#41
 x#5#42
 x#5#43
 x#5#44
 x#5#45
 x#5#46
 x#5#47
 x#5#48
 x#5#49
 x#5#50
 x#6#1
 x#6#2
 x#6#3
 x#6#4
 x#6#5
 x#6#6
 x#6#7
 x#6#8
 x#6#9
 x#6#10
 x#6#11
 x#6#12
 x#6#13
 x#6#14
 x#6#15
 x#6#16
 x#6#17
 x#6#18
 x#6#19
 x#6#20
 x#6#21
 x#6#22
 x#6#23
 x#6#24
 x#6#25
 x#6#26
 x#6#27
 x#6#28
 x#6#29
 x#6#30
 x#6#31
 x#6#32
 x#6#33
 x#6#34
 x#6#35
 x#6#36
 x#6#37
 x#6#38
 x#6#39
 x#6#40
 x#6#41
 x#6#42
 x#6#43
 x#6#44
 x#6#45
 x#6#46
 x#6#47
 x#6#48
 x#6#49
 x#6#50
 x#7#1
 x#7#2
 x#7#3
 x#7#4
 x#7#5
 x#7#6
 x#7#7
 x#7#8
 x#7#9
 x#7#10
 x#7#11
 x#7#12
 x#7#13
 x#7#14
 x#7#15
 x#7#16
 x#7#17
 x#7#18
 x#7#19
 x#7#20
 x#7#21
 x#7#22
 x#7#23
 x#7#24
 x#7#25
 x#7#26
 x#7#27
 x#7#28
 x#7#29
 x#7#30
 x#7#31
 x#7#32
 x#7#33
 x#7#34
 x#7#35
 x#7#36
 x#7#37
 x#7#38
 x#7#39
 x#7#40
 x#7#41
 x#7#42
 x#7#43
 x#7#44
 x#7#45
 x#7#46
 x#7#47
 x#7#48
 x#7#49
 x#7#50
 x#8#1
 x#8#2
 x#8#3
 x#8#4
 x#8#5
 x#8#6
 x#8#7
 x#8#8
 x#8#9
 x#8#10
 x#8#11
 x#8#12
 x#8#13
 x#8#14
 x#8#15
 x#8#16
 x#8#17
 x#8#18
 x#8#19
 x#8#20
 x#8#21
 x#8#22
 x#8#23
 x#8#24
 x#8#25
 x#8#26
 x#8#27
 x#8#28
 x#8#29
 x#8#30
 x#8#31
 x#8#32
 x#8#33
 x#8#34
 x#8#35
 x#8#36
 x#8#37
 x#8#38
 x#8#39
 x#8#40
 x#8#41
 x#8#42
 x#8#43
 x#8#44
 x#8#45
 x#8#46
 x#8#47
 x#8#48
 x#8#49
 x#8#50
 x#9#1
 x#9#2
 x#9#3
 x#9#4
 x#9#5
 x#9#6
 x#9#7
 x#9#8
 x#9#9
 x#9#10
 x#9#11
 x#9#12
 x#9#13
 x#9#14
 x#9#15
 x#9#16
 x#9#17
 x#9#18
 x#9#19
 x#9#20
 x#9#21
 x#9#22
 x#9#23
 x#9#24
 x#9#25
 x#9#26
 x#9#27
 x#9#28
 x#9#29
 x#9#30
 x#9#31
 x#9#32
 x#9#33
 x#9#34
 x#9#35
 x#9#36
 x#9#37
 x#9#38
 x#9#39
 x#9#40
 x#9#41
 x#9#42
 x#9#43
 x#9#44
 x#9#45
 x#9#46
 x#9#47
 x#9#48
 x#9#49
 x#9#50
 x#10#1
 x#10#2
 x#10#3
 x#10#4
 x#10#5
 x#10#6
 x#10#7
 x#10#8
 x#10#9
 x#10#10
 x#10#11
 x#10#12
 x#10#13
 x#10#14
 x#10#15
 x#10#16
 x#10#17
 x#10#18
 x#10#19
 x#10#20
 x#10#21
 x#10#22
 x#10#23
 x#10#24
 x#10#25
 x#10#26
 x#10#27
 x#10#28
 x#10#29
 x#10#30
 x#10#31
 x#10#32
 x#10#33
 x#10#34
 x#10#35
 x#10#36
 x#10#37
 x#10#38
 x#10#39
 x#10#40
 x#10#41
 x#10#42
 x#10#43
 x#10#44
 x#10#45
 x#10#46
 x#10#47
 x#10#48
 x#10#49
 x#10#50
End
